WARNING: for repeatability, setting FPU to use double precision
============================[ Problem Statistics ]=============================
|                                                                             |
|  Number of symmetries:          35                                          |
|  Number of invertingSyms:        0                                          |
|  Number of variables:           342                                         |
|  Number of clauses:            3097                                         |
|  Parse time:                   0.00 s                                       |
|                                                                             |
============================[ Search Statistics ]==============================
| Conflicts |          ORIGINAL         |          LEARNT          | Progress |
|           |    Vars  Clauses Literals |    Limit  Clauses Lit/Cl |          |
===============================================================================
|       100 |     342     3097     6498 |     1135      101    123 |  0.001 % |
|       250 |     342     3097     6498 |     1249      323     85 |  0.001 % |
|       475 |     342     3097     6498 |     1374      592     83 |  0.001 % |
|       812 |     342     3097     6498 |     1511      968     84 |  0.001 % |
|      1318 |     342     3097     6498 |     1662      816     80 |  0.001 % |
|      2077 |     342     3097     6498 |     1828     1696     83 |  0.001 % |
|      3216 |     342     3097     6498 |     2011     1057    114 |  0.016 % |
|      4924 |     342     3097     6498 |     2212     1183    117 |  0.001 % |
|      7486 |     342     3097     6498 |     2434     1981    121 |  0.001 % |
|     11330 |     342     3097     6498 |     2677     1799    121 |  0.001 % |
|     17096 |     342     3097     6498 |     2945     1659    119 |  0.001 % |
|     25745 |     342     3097     6498 |     3239     2072    124 |  0.001 % |
|     38719 |     342     3097     6498 |     3563     3032    122 |  0.001 % |
|     58180 |     342     3097     6498 |     3920     1837    133 |  0.001 % |
|     87372 |     342     3097     6498 |     4312     3233    137 |  0.001 % |
|    131161 |     342     3097     6498 |     4743     2948    139 |  0.001 % |
|    196845 |     342     3097     6498 |     5217     4775    135 |  0.001 % |
|    295371 |     342     3097     6498 |     5739     3325    152 |  0.001 % |
|    443160 |     342     3097     6498 |     6313     4137    139 |  0.001 % |
|    664843 |     342     3097     6498 |     6945     3491    140 |  0.001 % |
|    997368 |     342     3097     6498 |     7639     7156    128 |  0.001 % |
|   1496156 |     342     3097     6498 |     8403     7276    137 |  0.001 % |
|   2244338 |     342     3097     6498 |     9243     7396    104 |  0.001 % |
|   3366612 |     342     3097     6498 |    10168     9034    134 |  0.001 % |
|   5050023 |     342     3097     6498 |    11185     5338    125 |  0.001 % |
|   7575139 |     342     3097     6498 |    12303     9570    124 |  0.001 % |
|  11362814 |     342     3097     6498 |    13533     8620    156 |  0.001 % |
|  17044326 |     342     3097     6498 |    14887     7971    134 |  0.001 % |
|  25566595 |     342     3097     6498 |    16375    12048    149 |  0.001 % |
|  38349998 |     342     3097     6498 |    18013    10246    144 |  0.001 % |
===============================================================================
restarts              : 73726
conflicts             : 57450561       (11301 /sec)
symconflicts          : 3734331        (735 /sec)
decisions             : 92034735       (0.00 % random) (18105 /sec)
propagations          : 1135611672     (223392 /sec)
sympropagations       : 12936038       (2545 /sec)
conflict literals     : 8099465926     (7.15 % deleted)
Memory used           : 108.00 MB
CPU time              : 5083.5 s

INDETERMINATE
